; benchmark generated from python API
(set-info :status unknown)
(declare-fun x_months () Int)
(declare-fun x_beta () Int)
(assert
 (<= (- 1202) x_months))
(assert
 (>= 1209 x_months))
(assert
 (>= x_beta 0))
(assert
 (let ((?x554 (+ x_months 24003)))
 (let ((?x315 (- ?x554 (* (div (- ?x554 1) 12) 12))))
 (let ((?x445 (ite (or (= ?x315 4) (= ?x315 6) (= ?x315 9) (= ?x315 11)) 30 31)))
 (let (($x542 (and (= (mod (div (- ?x554 1) 12) 4) 0) (and (distinct (mod (div (- ?x554 1) 12) 100) 0) true))))
 (let ((?x449 (ite (or $x542 (= (mod (div (- ?x554 1) 12) 400) 0)) 29 28)))
 (< x_beta (ite (= ?x315 2) ?x449 ?x445))))))))
(assert
 (let (($x252 (and (= x_months (- (+ (* 2023 12) 1) 24003)) (<= 0 x_beta))))
 (or (> x_months (- (+ (* 2023 12) 1) 24003)) $x252)))
(assert
 (let ((?x488 (- (+ (* 2023 12) 12) 24003)))
 (let (($x490 (= x_months ?x488)))
 (or (< x_months ?x488) (and $x490 (>= 30 x_beta))))))
(assert
 (let ((?x498 (+ x_beta 1)))
 (let ((?x571 (+ (+ x_months 0) 24003)))
 (let ((?x575 (- ?x571 (* (div (- ?x571 1) 12) 12))))
 (let ((?x591 (ite (or (= ?x575 4) (= ?x575 6) (= ?x575 9) (= ?x575 11)) 30 31)))
 (let (($x581 (and (= (mod (div (- ?x571 1) 12) 4) 0) (and (distinct (mod (div (- ?x571 1) 12) 100) 0) true))))
 (let (($x584 (or $x581 (= (mod (div (- ?x571 1) 12) 400) 0))))
 (let ((?x592 (ite (= ?x575 2) (ite $x584 29 28) ?x591)))
 (let (($x358 (> 1 ?x498)))
 (let ((?x595 (ite $x358 1 (ite (> ?x498 ?x592) ?x592 ?x498))))
 (let ((?x599 (ite (> 1 ?x595) 1 (ite (> ?x595 ?x592) ?x592 ?x595))))
 (let ((?x614 (ite (= 2 ?x575) (ite $x584 31 31) (ite (= 1 ?x575) (ite $x584 0 0) 0))))
 (let ((?x620 (ite (= 4 ?x575) (ite $x584 91 90) (ite (= 3 ?x575) (ite $x584 60 59) ?x614))))
 (let ((?x626 (ite (= 6 ?x575) (ite $x584 152 151) (ite (= 5 ?x575) (ite $x584 121 120) ?x620))))
 (let ((?x632 (ite (= 8 ?x575) (ite $x584 213 212) (ite (= 7 ?x575) (ite $x584 182 181) ?x626))))
 (let ((?x638 (ite (= 10 ?x575) (ite $x584 274 273) (ite (= 9 ?x575) (ite $x584 244 243) ?x632))))
 (let ((?x644 (ite (= 12 ?x575) (ite $x584 335 334) (ite (= 11 ?x575) (ite $x584 305 304) ?x638))))
 (let ((?x604 (+ (* 365 (- (div (- ?x571 1) 12) 1)) (div (- (div (- ?x571 1) 12) 1) 4))))
 (let ((?x608 (+ (- ?x604 (div (- (div (- ?x571 1) 12) 1) 100)) (div (- (div (- ?x571 1) 12) 1) 400))))
 (let ((?x650 (+ (+ (- (+ (+ ?x608 ?x644) (- ?x599 1)) 730179) 61) 730179)))
 (let ((?x652 (mod ?x650 146097)))
 (let ((?x653 (div ?x652 36524)))
 (let ((?x655 (ite (<= 4 ?x653) 3 ?x653)))
 (let ((?x657 (- ?x652 (* ?x655 36524))))
 (let ((?x659 (mod ?x657 1461)))
 (let ((?x660 (div ?x659 365)))
 (let ((?x662 (ite (<= 4 ?x660) 3 ?x660)))
 (let ((?x669 (+ (+ (* (div ?x650 146097) 400) (* ?x655 100)) (* (div ?x657 1461) 4))))
 (let ((?x671 (+ (+ ?x669 ?x662) 1)))
 (let (($x679 (or (and (= (mod ?x671 4) 0) (and (distinct (mod ?x671 100) 0) true)) (= (mod ?x671 400) 0))))
 (let ((?x664 (- ?x659 (* ?x662 365))))
 (let ((?x681 (ite $x679 31 31)))
 (let (($x692 (>= ?x664 ?x681)))
 (let ((?x718 (ite $x692 (+ (- ?x664 ?x681) 1) (+ (- ?x664 (ite $x679 0 0)) 1))))
 (let ((?x682 (ite $x679 60 59)))
 (let (($x694 (>= ?x664 ?x682)))
 (let ((?x683 (ite $x679 91 90)))
 (let (($x696 (>= ?x664 ?x683)))
 (let ((?x724 (ite $x696 (+ (- ?x664 ?x683) 1) (ite $x694 (+ (- ?x664 ?x682) 1) ?x718))))
 (let ((?x684 (ite $x679 121 120)))
 (let (($x698 (>= ?x664 ?x684)))
 (let ((?x685 (ite $x679 152 151)))
 (let (($x700 (>= ?x664 ?x685)))
 (let ((?x730 (ite $x700 (+ (- ?x664 ?x685) 1) (ite $x698 (+ (- ?x664 ?x684) 1) ?x724))))
 (let ((?x686 (ite $x679 182 181)))
 (let (($x702 (>= ?x664 ?x686)))
 (let ((?x687 (ite $x679 213 212)))
 (let (($x704 (>= ?x664 ?x687)))
 (let ((?x736 (ite $x704 (+ (- ?x664 ?x687) 1) (ite $x702 (+ (- ?x664 ?x686) 1) ?x730))))
 (let ((?x688 (ite $x679 244 243)))
 (let (($x706 (>= ?x664 ?x688)))
 (let ((?x689 (ite $x679 274 273)))
 (let (($x708 (>= ?x664 ?x689)))
 (let ((?x742 (ite $x708 (+ (- ?x664 ?x689) 1) (ite $x706 (+ (- ?x664 ?x688) 1) ?x736))))
 (let ((?x690 (ite $x679 305 304)))
 (let (($x710 (>= ?x664 ?x690)))
 (let ((?x691 (ite $x679 335 334)))
 (let (($x712 (>= ?x664 ?x691)))
 (let ((?x748 (ite $x712 (+ (- ?x664 ?x691) 1) (ite $x710 (+ (- ?x664 ?x690) 1) ?x742))))
 (let (($x600 (= 61 0)))
 (let ((?x505 (+ (+ x_months 2) 24003)))
 (let ((?x500 (- ?x505 (* (div (- ?x505 1) 12) 12))))
 (let ((?x421 (ite (or (= ?x500 4) (= ?x500 6) (= ?x500 9) (= ?x500 11)) 30 31)))
 (let (($x410 (and (= (mod (div (- ?x505 1) 12) 4) 0) (and (distinct (mod (div (- ?x505 1) 12) 100) 0) true))))
 (let (($x386 (or $x410 (= (mod (div (- ?x505 1) 12) 400) 0))))
 (let ((?x423 (ite (= ?x500 2) (ite $x386 29 28) ?x421)))
 (let ((?x351 (ite $x358 1 (ite (> ?x498 ?x423) ?x423 ?x498))))
 (let ((?x536 (ite (> 1 ?x351) 1 (ite (> ?x351 ?x423) ?x423 ?x351))))
 (let ((?x221 (ite (= 2 ?x500) (ite $x386 31 31) (ite (= 1 ?x500) (ite $x386 0 0) 0))))
 (let ((?x430 (ite (= 4 ?x500) (ite $x386 91 90) (ite (= 3 ?x500) (ite $x386 60 59) ?x221))))
 (let ((?x478 (ite (= 6 ?x500) (ite $x386 152 151) (ite (= 5 ?x500) (ite $x386 121 120) ?x430))))
 (let ((?x254 (ite (= 8 ?x500) (ite $x386 213 212) (ite (= 7 ?x500) (ite $x386 182 181) ?x478))))
 (let ((?x295 (ite (= 10 ?x500) (ite $x386 274 273) (ite (= 9 ?x500) (ite $x386 244 243) ?x254))))
 (let ((?x402 (ite (= 12 ?x500) (ite $x386 335 334) (ite (= 11 ?x500) (ite $x386 305 304) ?x295))))
 (let ((?x290 (+ (* 365 (- (div (- ?x505 1) 12) 1)) (div (- (div (- ?x505 1) 12) 1) 4))))
 (let ((?x209 (+ (- ?x290 (div (- (div (- ?x505 1) 12) 1) 100)) (div (- (div (- ?x505 1) 12) 1) 400))))
 (let ((?x223 (+ (+ (- (+ (+ ?x209 ?x402) (- ?x536 1)) 730179) 0) 730179)))
 (let ((?x260 (mod ?x223 146097)))
 (let ((?x286 (div ?x260 36524)))
 (let ((?x215 (ite (<= 4 ?x286) 3 ?x286)))
 (let ((?x213 (- ?x260 (* ?x215 36524))))
 (let ((?x266 (mod ?x213 1461)))
 (let ((?x318 (div ?x266 365)))
 (let ((?x365 (ite (<= 4 ?x318) 3 ?x318)))
 (let ((?x206 (+ (+ (* (div ?x223 146097) 400) (* ?x215 100)) (* (div ?x213 1461) 4))))
 (let ((?x255 (+ (+ ?x206 ?x365) 1)))
 (let (($x346 (or (and (= (mod ?x255 4) 0) (and (distinct (mod ?x255 100) 0) true)) (= (mod ?x255 400) 0))))
 (let ((?x456 (- ?x266 (* ?x365 365))))
 (let ((?x283 (ite $x346 31 31)))
 (let (($x299 (>= ?x456 ?x283)))
 (let ((?x540 (ite $x299 (+ (- ?x456 ?x283) 1) (+ (- ?x456 (ite $x346 0 0)) 1))))
 (let ((?x285 (ite $x346 60 59)))
 (let (($x230 (>= ?x456 ?x285)))
 (let ((?x282 (ite $x346 91 90)))
 (let (($x227 (>= ?x456 ?x282)))
 (let ((?x241 (ite $x227 (+ (- ?x456 ?x282) 1) (ite $x230 (+ (- ?x456 ?x285) 1) ?x540))))
 (let ((?x378 (ite $x346 121 120)))
 (let (($x493 (>= ?x456 ?x378)))
 (let ((?x377 (ite $x346 152 151)))
 (let (($x340 (>= ?x456 ?x377)))
 (let ((?x312 (ite $x340 (+ (- ?x456 ?x377) 1) (ite $x493 (+ (- ?x456 ?x378) 1) ?x241))))
 (let ((?x379 (ite $x346 182 181)))
 (let (($x323 (>= ?x456 ?x379)))
 (let ((?x448 (ite $x346 213 212)))
 (let (($x316 (>= ?x456 ?x448)))
 (let ((?x349 (ite $x316 (+ (- ?x456 ?x448) 1) (ite $x323 (+ (- ?x456 ?x379) 1) ?x312))))
 (let ((?x398 (ite $x346 244 243)))
 (let (($x250 (>= ?x456 ?x398)))
 (let ((?x397 (ite $x346 274 273)))
 (let (($x251 (>= ?x456 ?x397)))
 (let ((?x204 (ite $x251 (+ (- ?x456 ?x397) 1) (ite $x250 (+ (- ?x456 ?x398) 1) ?x349))))
 (let ((?x399 (ite $x346 305 304)))
 (let (($x517 (>= ?x456 ?x399)))
 (let ((?x300 (ite $x346 335 334)))
 (let (($x552 (>= ?x456 ?x300)))
 (let ((?x562 (ite $x552 (+ (- ?x456 ?x300) 1) (ite $x517 (+ (- ?x456 ?x399) 1) ?x204))))
 (let (($x534 (= 0 0)))
 (let ((?x699 (ite $x698 5 (ite $x696 4 (ite $x694 3 (ite $x692 2 1))))))
 (let ((?x707 (ite $x706 9 (ite $x704 8 (ite $x702 7 (ite $x700 6 ?x699))))))
 (let ((?x713 (ite $x712 12 (ite $x710 11 (ite $x708 10 ?x707)))))
 (let ((?x753 (+ (* (ite $x600 (div (- ?x571 1) 12) ?x671) 12) (ite $x600 ?x575 ?x713))))
 (let ((?x494 (ite $x493 5 (ite $x227 4 (ite $x230 3 (ite $x299 2 1))))))
 (let ((?x249 (ite $x250 9 (ite $x316 8 (ite $x323 7 (ite $x340 6 ?x494))))))
 (let ((?x567 (+ (* (ite $x534 (div (- ?x505 1) 12) ?x255) 12) (ite $x534 ?x500 (ite $x552 12 (ite $x517 11 (ite $x251 10 ?x249)))))))
 (and (= (- ?x567 24003) (- ?x753 24003)) (= (- (ite $x534 ?x536 ?x562) 1) (- (ite $x600 ?x599 ?x748) 1)))))))))))))))))))))))))))))))))))))))))))))))))))))))))))))))))))))))))))))))))))))))))))))))))))))))))))))))))))))))))))))))
(assert
 (let ((?x488 (- (+ (* 2023 12) 12) 24003)))
(let (($x490 (= x_months ?x488)))
(and $x490 (= 29 x_beta)))))
(check-sat)
